SDVRP instances/custom_instances/p02_4_split0.vrp
NAME:p02_4_split
BEST_KNOWN: 0
COMMENT: 0
DIMENSION: 397
CAPACITY: 140
EDGE_WEIGHT_FORMAT: FUNCTION
EDGE_WEIGHT_TYPE: EXACT_2D
NODE_COORD_SECTION
1 0.00000 0.00000
2 41 45
3 41 45
4 41 45
5 41 45
6 41 45
7 41 45
8 41 45
9 29 -33
10 29 -33
11 29 -33
12 29 -33
13 29 -33
14 29 -33
15 29 -33
16 29 -33
17 -40 -29
18 -40 -29
19 -40 -29
20 43 25
21 43 25
22 34 -34
23 34 -34
24 34 -34
25 44 33
26 44 33
27 44 33
28 18 25
29 18 25
30 18 25
31 18 25
32 18 25
33 -1 -27
34 -1 -27
35 -1 -27
36 -1 -27
37 -1 -27
38 -1 -27
39 -1 -27
40 -1 -27
41 -31 41
42 -31 41
43 -31 41
44 -31 41
45 -31 41
46 -41 -8
47 -41 -8
48 15 12
49 15 12
50 15 12
51 47 39
52 47 39
53 47 39
54 47 39
55 47 39
56 47 39
57 47 39
58 47 39
59 -20 19
60 -20 19
61 -20 19
62 -20 19
63 30 10
64 30 10
65 30 10
66 30 10
67 30 10
68 30 10
69 30 10
70 30 10
71 30 10
72 -26 -21
73 -26 -21
74 -26 -21
75 -26 -21
76 -26 -21
77 -26 -21
78 -38 50
79 -38 50
80 -38 50
81 -38 50
82 -38 50
83 -38 50
84 -38 50
85 -38 50
86 -39 -50
87 -39 -50
88 -39 -50
89 -39 -50
90 -39 -50
91 -39 -50
92 -39 -50
93 -39 -50
94 49 -4
95 49 -4
96 49 -4
97 49 -4
98 49 -4
99 4 48
100 4 48
101 4 48
102 4 48
103 4 48
104 4 48
105 4 48
106 -32 16
107 -32 16
108 -32 16
109 -32 16
110 -32 16
111 -32 16
112 40 -42
113 40 -42
114 40 -42
115 40 -42
116 -36 12
117 -36 12
118 -36 12
119 -36 12
120 -36 12
121 -36 12
122 -30 -1
123 -30 -1
124 -30 -1
125 -30 -1
126 34 -29
127 34 -29
128 34 -29
129 34 -29
130 34 -29
131 34 -29
132 34 -29
133 34 -29
134 -38 23
135 -38 23
136 -38 23
137 21 -1
138 21 -1
139 17 25
140 17 25
141 17 25
142 17 25
143 17 25
144 17 25
145 17 25
146 -7 16
147 -7 16
148 -7 16
149 -7 16
150 -7 16
151 -7 16
152 -1 -20
153 -1 -20
154 48 -28
155 48 -28
156 48 -28
157 48 -28
158 48 -28
159 48 -28
160 48 -28
161 48 -28
162 -41 34
163 -41 34
164 -41 34
165 -41 34
166 -41 34
167 -41 34
168 -41 34
169 -33 36
170 -33 36
171 -33 36
172 -33 36
173 6 47
174 6 47
175 6 47
176 6 47
177 6 47
178 46 -47
179 46 -47
180 46 -47
181 46 -47
182 46 -47
183 -18 -18
184 -18 -18
185 -18 -18
186 -18 -18
187 -18 -18
188 -18 -18
189 -18 -18
190 36 -12
191 36 -12
192 36 -12
193 45 -42
194 45 -42
195 45 -42
196 45 -42
197 -15 9
198 -15 9
199 -15 9
200 45 34
201 -25 0
202 -25 0
203 -25 0
204 -25 0
205 -25 0
206 -25 0
207 -25 0
208 -25 0
209 -6 31
210 -6 31
211 -6 31
212 -6 31
213 -6 31
214 -6 31
215 -6 31
216 -6 31
217 -44 -19
218 -44 -19
219 -44 -19
220 -44 -19
221 -44 -19
222 -44 -19
223 -44 -19
224 -44 -19
225 13 -38
226 13 -38
227 13 -38
228 13 -38
229 13 -38
230 13 -38
231 13 -38
232 -48 -17
233 -48 -17
234 -48 -17
235 -48 -17
236 -26 11
237 -26 11
238 -26 11
239 -26 11
240 -26 11
241 -14 -34
242 -14 -34
243 -14 -34
244 -23 -30
245 -23 -30
246 -23 -30
247 -23 -30
248 -23 -30
249 -23 -30
250 -23 -30
251 21 31
252 21 31
253 21 31
254 21 31
255 21 31
256 49 -25
257 49 -25
258 49 -25
259 49 -25
260 49 -25
261 49 -25
262 49 -25
263 49 -25
264 19 21
265 19 21
266 19 21
267 19 21
268 19 21
269 19 21
270 19 21
271 19 21
272 19 21
273 -16 -7
274 -16 -7
275 -16 -7
276 -16 -7
277 -16 -7
278 -16 -7
279 -16 -7
280 -16 -7
281 -16 -40
282 -16 -40
283 -16 -40
284 -16 -40
285 34 11
286 34 11
287 34 11
288 34 11
289 9 -22
290 9 -22
291 9 -22
292 9 -22
293 9 -22
294 9 -22
295 9 -22
296 9 -22
297 33 0
298 33 0
299 33 0
300 33 0
301 33 0
302 33 0
303 14 -17
304 14 -17
305 14 -17
306 10 32
307 10 32
308 -28 14
309 -28 14
310 -14 49
311 -14 49
312 -14 49
313 -14 49
314 27 37
315 27 37
316 27 37
317 27 37
318 27 37
319 -29 -50
320 -29 -50
321 -29 -50
322 -29 -50
323 -29 -50
324 -30 42
325 -30 42
326 -14 36
327 -14 36
328 -14 36
329 -14 36
330 -14 36
331 -14 36
332 -14 36
333 -10 8
334 -10 8
335 -10 8
336 -10 8
337 30 -22
338 30 -22
339 30 -22
340 30 -22
341 -25 -18
342 -25 -18
343 -25 -18
344 -25 -18
345 -25 -18
346 -25 -18
347 -25 -18
348 -25 -18
349 40 -43
350 40 -43
351 40 -43
352 40 -43
353 40 -43
354 40 -43
355 40 -43
356 24 47
357 24 47
358 24 47
359 24 47
360 24 47
361 24 47
362 24 47
363 9 -7
364 9 -7
365 9 -7
366 9 -7
367 9 -7
368 9 -7
369 9 -7
370 48 -7
371 48 -7
372 48 -7
373 48 -7
374 48 -7
375 48 -7
376 48 -7
377 48 -7
378 8 45
379 8 45
380 -12 12
381 -12 12
382 -12 12
383 -12 12
384 -12 12
385 -12 12
386 -12 12
387 -12 12
388 -10 -24
389 -10 -24
390 -10 -24
391 -10 -24
392 -20 -50
393 -20 -50
394 -42 41
395 -42 41
396 -42 41
397 -42 41
DEMAND_SECTION
1 0
2 14
3 7
4 1
5 1
6 1
7 1
8 1
9 28
10 14
11 1
12 1
13 1
14 1
15 1
16 1
17 28
18 28
19 1
20 28
21 1
22 28
23 28
24 7
25 28
26 14
27 7
28 28
29 14
30 7
31 1
32 1
33 28
34 28
35 7
36 1
37 1
38 1
39 1
40 1
41 28
42 14
43 1
44 1
45 1
46 28
47 14
48 28
49 28
50 7
51 28
52 28
53 1
54 1
55 1
56 1
57 1
58 1
59 14
60 1
61 1
62 1
63 28
64 28
65 7
66 1
67 1
68 1
69 1
70 1
71 1
72 28
73 28
74 7
75 1
76 1
77 1
78 28
79 28
80 1
81 1
82 1
83 1
84 1
85 1
86 14
87 7
88 1
89 1
90 1
91 1
92 1
93 1
94 28
95 14
96 1
97 1
98 1
99 28
100 14
101 7
102 1
103 1
104 1
105 1
106 28
107 1
108 1
109 1
110 1
111 1
112 14
113 1
114 1
115 1
116 28
117 28
118 7
119 1
120 1
121 1
122 28
123 14
124 1
125 1
126 14
127 7
128 1
129 1
130 1
131 1
132 1
133 1
134 14
135 7
136 1
137 28
138 28
139 28
140 28
141 7
142 1
143 1
144 1
145 1
146 14
147 1
148 1
149 1
150 1
151 1
152 28
153 14
154 14
155 7
156 1
157 1
158 1
159 1
160 1
161 1
162 28
163 28
164 7
165 1
166 1
167 1
168 1
169 28
170 14
171 7
172 1
173 28
174 28
175 7
176 1
177 1
178 14
179 1
180 1
181 1
182 1
183 28
184 7
185 1
186 1
187 1
188 1
189 1
190 28
191 28
192 14
193 28
194 14
195 1
196 1
197 14
198 7
199 1
200 28
201 28
202 28
203 7
204 1
205 1
206 1
207 1
208 1
209 28
210 14
211 1
212 1
213 1
214 1
215 1
216 1
217 28
218 7
219 1
220 1
221 1
222 1
223 1
224 1
225 28
226 14
227 1
228 1
229 1
230 1
231 1
232 28
233 1
234 1
235 1
236 28
237 7
238 1
239 1
240 1
241 28
242 1
243 1
244 14
245 1
246 1
247 1
248 1
249 1
250 1
251 28
252 14
253 1
254 1
255 1
256 28
257 28
258 7
259 1
260 1
261 1
262 1
263 1
264 28
265 14
266 7
267 1
268 1
269 1
270 1
271 1
272 1
273 28
274 14
275 1
276 1
277 1
278 1
279 1
280 1
281 28
282 14
283 7
284 1
285 14
286 1
287 1
288 1
289 28
290 14
291 7
292 1
293 1
294 1
295 1
296 1
297 14
298 1
299 1
300 1
301 1
302 1
303 14
304 7
305 1
306 28
307 14
308 28
309 1
310 28
311 14
312 1
313 1
314 28
315 1
316 1
317 1
318 1
319 28
320 14
321 7
322 1
323 1
324 28
325 1
326 14
327 7
328 1
329 1
330 1
331 1
332 1
333 14
334 7
335 1
336 1
337 28
338 14
339 7
340 1
341 14
342 7
343 1
344 1
345 1
346 1
347 1
348 1
349 14
350 7
351 1
352 1
353 1
354 1
355 1
356 28
357 1
358 1
359 1
360 1
361 1
362 1
363 28
364 28
365 1
366 1
367 1
368 1
369 1
370 28
371 14
372 7
373 1
374 1
375 1
376 1
377 1
378 28
379 14
380 28
381 14
382 7
383 1
384 1
385 1
386 1
387 1
388 14
389 7
390 1
391 1
392 28
393 7
394 14
395 7
396 1
397 1
DEPOT_SECTION
1
-1
EOF