SDVRP instances/custom_instances/p02_4_split0.sol
396 -17 16 18 220 219 218 216 221 217 222 223 231 233 234 232 -21 22 23 15 13 9 12 10 8 14 11 302 303 304 -24 26 25 199 50 53 54 52 51 56 55 57 -27 29 254 252 251 253 250 306 305 -47 49 48 137 136 -58 59 60 61 396 393 395 394 82 83 84 79 78 81 80 77 323 324 -64 63 65 69 67 68 70 66 62 190 189 191 -99 103 100 310 309 312 311 331 327 330 329 328 325 326 215 211 213 210 209 208 212 214 -102 104 101 98 176 175 172 173 174 377 378 -112 114 111 113 354 353 348 350 352 351 349 178 180 179 181 177 195 192 194 193 128 125 131 132 126 130 129 127 338 -123 122 124 121 46 45 278 274 276 275 272 279 277 273 -143 139 144 138 140 142 141 28 30 31 263 264 271 265 266 268 267 269 270 -150 147 148 145 149 146 40 41 43 42 44 171 168 169 170 386 380 384 -151 280 281 283 282 240 242 241 390 388 389 387 -152 38 39 36 33 32 35 37 34 230 224 227 225 228 226 229 293 295 -184 183 186 182 188 187 185 76 71 72 74 75 73 347 340 343 342 344 346 345 341 -205 203 202 200 201 204 207 206 196 198 197 381 379 335 334 333 -237 236 238 239 235 119 120 116 117 118 115 307 -245 243 246 244 248 249 247 88 92 90 89 91 85 87 86 319 321 322 320 318 391 392 -255 262 258 261 257 256 260 259 156 154 153 158 157 160 155 159 337 339 336 -287 285 284 286 19 20 6 7 5 3 1 4 2 355 360 359 357 358 361 356 313 315 314 316 317 -290 292 288 291 294 289 362 363 367 366 364 368 365 -296 301 297 298 299 300 97 96 95 93 94 376 375 370 373 369 374 371 372 -308 105 110 106 108 107 109 134 135 133 162 161 163 166 164 167 165 385 382 383 332 0 





OBJ=
2341.241
BEST_KNOWN=
0.000